\ Model VRP
\ LP format - for model browsing. Use MPS format to capture full model detail.
Maximize
  0 Directflow[0,2,0] + 0 Directflow[1,0,0] + 0 Directflow[1,1,0]
   + 0 Directflow[1,2,0] + 0 Directflow[2,0,0] + 0 Directflow[2,1,0]
   + 0 Directflow[2,2,0] + 0 Directflow[1,0,1] + 0 Directflow[1,1,1]
   + 0 Directflow[1,2,1] + 0 Directflow[2,0,1] + 0 Directflow[2,1,1]
   + 0 Directflow[2,2,1] + 0 Directflow[1,0,2] + 0 Directflow[1,1,2]
   + 0 Directflow[1,2,2] + 0 Directflow[2,0,2] + 0 Directflow[2,1,2]
   + 0 Directflow[2,2,2] + 0 Directflow[0,1,3] + 0 Directflow[1,0,3]
   + 0 Directflow[1,1,3] + 0 Directflow[1,2,3] + 0 Directflow[2,0,3]
   + 0 Directflow[2,1,3] + 0 Directflow[2,2,3]
Subject To
 R0: Transferflow[0,0,0,0] + Transferflow[0,1,0,0] + Transferflow[0,2,0,0]
   + Transferflow[1,0,0,0] + Transferflow[1,1,0,0] + Transferflow[1,2,0,0]
   + Transferflow[2,0,0,0] + Transferflow[2,1,0,0] + Transferflow[2,2,0,0]
   + Transferflow[0,0,1,0] + Transferflow[0,1,1,0] + Transferflow[0,2,1,0]
   + Transferflow[1,0,1,0] + Transferflow[1,1,1,0] + Transferflow[1,2,1,0]
   + Transferflow[2,0,1,0] + Transferflow[2,1,1,0] + Transferflow[2,2,1,0]
   + Transferflow[0,0,2,0] + Transferflow[0,1,2,0] + Transferflow[0,2,2,0]
   + Transferflow[1,0,2,0] + Transferflow[1,1,2,0] + Transferflow[1,2,2,0]
   + Transferflow[2,0,2,0] + Transferflow[2,1,2,0] + Transferflow[2,2,2,0]
   + Transferflow[0,0,3,0] + Transferflow[0,1,3,0] + Transferflow[0,2,3,0]
   + Transferflow[1,0,3,0] + Transferflow[1,1,3,0] + Transferflow[1,2,3,0]
   + Transferflow[2,0,3,0] + Transferflow[2,1,3,0] + Transferflow[2,2,3,0]
   + Directflow[0,0,0] + Directflow[0,1,0] - 36 Aircraft_number[0,1]
   - 56 Aircraft_number[0,2] - 120 Aircraft_number[0,3]
   - 16 Aircraft_number[0,4] - 38.4 Aircraft_number[0,5] <= 0
 R1: Transferflow[0,0,0,1] + Transferflow[0,1,0,1] + Transferflow[0,2,0,1]
   + Transferflow[1,0,0,1] + Transferflow[1,1,0,1] + Transferflow[1,2,0,1]
   + Transferflow[2,0,0,1] + Transferflow[2,1,0,1] + Transferflow[2,2,0,1]
   + Transferflow[0,0,1,1] + Transferflow[0,1,1,1] + Transferflow[0,2,1,1]
   + Transferflow[1,0,1,1] + Transferflow[1,1,1,1] + Transferflow[1,2,1,1]
   + Transferflow[2,0,1,1] + Transferflow[2,1,1,1] + Transferflow[2,2,1,1]
   + Transferflow[0,0,2,1] + Transferflow[0,1,2,1] + Transferflow[0,2,2,1]
   + Transferflow[1,0,2,1] + Transferflow[1,1,2,1] + Transferflow[1,2,2,1]
   + Transferflow[2,0,2,1] + Transferflow[2,1,2,1] + Transferflow[2,2,2,1]
   + Transferflow[0,0,3,1] + Transferflow[0,1,3,1] + Transferflow[0,2,3,1]
   + Transferflow[1,0,3,1] + Transferflow[1,1,3,1] + Transferflow[1,2,3,1]
   + Transferflow[2,0,3,1] + Transferflow[2,1,3,1] + Transferflow[2,2,3,1]
   + Directflow[0,0,1] + Directflow[0,1,1] + Directflow[0,2,1]
   - 36 Aircraft_number[1,1] - 56 Aircraft_number[1,2]
   - 120 Aircraft_number[1,3] - 16 Aircraft_number[1,4]
   - 38.4 Aircraft_number[1,5] <= 0
 R2: Transferflow[0,0,0,2] + Transferflow[0,1,0,2] + Transferflow[0,2,0,2]
   + Transferflow[1,0,0,2] + Transferflow[1,1,0,2] + Transferflow[1,2,0,2]
   + Transferflow[2,0,0,2] + Transferflow[2,1,0,2] + Transferflow[2,2,0,2]
   + Transferflow[0,0,1,2] + Transferflow[0,1,1,2] + Transferflow[0,2,1,2]
   + Transferflow[1,0,1,2] + Transferflow[1,1,1,2] + Transferflow[1,2,1,2]
   + Transferflow[2,0,1,2] + Transferflow[2,1,1,2] + Transferflow[2,2,1,2]
   + Transferflow[0,0,2,2] + Transferflow[0,1,2,2] + Transferflow[0,2,2,2]
   + Transferflow[1,0,2,2] + Transferflow[1,1,2,2] + Transferflow[1,2,2,2]
   + Transferflow[2,0,2,2] + Transferflow[2,1,2,2] + Transferflow[2,2,2,2]
   + Transferflow[0,0,3,2] + Transferflow[0,1,3,2] + Transferflow[0,2,3,2]
   + Transferflow[1,0,3,2] + Transferflow[1,1,3,2] + Transferflow[1,2,3,2]
   + Transferflow[2,0,3,2] + Transferflow[2,1,3,2] + Transferflow[2,2,3,2]
   + Directflow[0,0,2] + Directflow[0,1,2] + Directflow[0,2,2]
   - 36 Aircraft_number[2,1] - 56 Aircraft_number[2,2]
   - 120 Aircraft_number[2,3] - 16 Aircraft_number[2,4]
   - 38.4 Aircraft_number[2,5] <= 0
 R3: Transferflow[0,0,0,3] + Transferflow[0,1,0,3] + Transferflow[0,2,0,3]
   + Transferflow[1,0,0,3] + Transferflow[1,1,0,3] + Transferflow[1,2,0,3]
   + Transferflow[2,0,0,3] + Transferflow[2,1,0,3] + Transferflow[2,2,0,3]
   + Transferflow[0,0,1,3] + Transferflow[0,1,1,3] + Transferflow[0,2,1,3]
   + Transferflow[1,0,1,3] + Transferflow[1,1,1,3] + Transferflow[1,2,1,3]
   + Transferflow[2,0,1,3] + Transferflow[2,1,1,3] + Transferflow[2,2,1,3]
   + Transferflow[0,0,2,3] + Transferflow[0,1,2,3] + Transferflow[0,2,2,3]
   + Transferflow[1,0,2,3] + Transferflow[1,1,2,3] + Transferflow[1,2,2,3]
   + Transferflow[2,0,2,3] + Transferflow[2,1,2,3] + Transferflow[2,2,2,3]
   + Transferflow[0,0,3,3] + Transferflow[0,1,3,3] + Transferflow[0,2,3,3]
   + Transferflow[1,0,3,3] + Transferflow[1,1,3,3] + Transferflow[1,2,3,3]
   + Transferflow[2,0,3,3] + Transferflow[2,1,3,3] + Transferflow[2,2,3,3]
   + Directflow[0,0,3] + Directflow[0,2,3] - 36 Aircraft_number[3,1]
   - 56 Aircraft_number[3,2] - 120 Aircraft_number[3,3]
   - 16 Aircraft_number[3,4] - 38.4 Aircraft_number[3,5] <= 0
Bounds
Generals
 Transferflow[0,0,0,0] Transferflow[0,1,0,0] Transferflow[0,2,0,0]
 Transferflow[1,0,0,0] Transferflow[1,1,0,0] Transferflow[1,2,0,0]
 Transferflow[2,0,0,0] Transferflow[2,1,0,0] Transferflow[2,2,0,0]
 Transferflow[0,0,0,1] Transferflow[0,1,0,1] Transferflow[0,2,0,1]
 Transferflow[1,0,0,1] Transferflow[1,1,0,1] Transferflow[1,2,0,1]
 Transferflow[2,0,0,1] Transferflow[2,1,0,1] Transferflow[2,2,0,1]
 Transferflow[0,0,0,2] Transferflow[0,1,0,2] Transferflow[0,2,0,2]
 Transferflow[1,0,0,2] Transferflow[1,1,0,2] Transferflow[1,2,0,2]
 Transferflow[2,0,0,2] Transferflow[2,1,0,2] Transferflow[2,2,0,2]
 Transferflow[0,0,0,3] Transferflow[0,1,0,3] Transferflow[0,2,0,3]
 Transferflow[1,0,0,3] Transferflow[1,1,0,3] Transferflow[1,2,0,3]
 Transferflow[2,0,0,3] Transferflow[2,1,0,3] Transferflow[2,2,0,3]
 Transferflow[0,0,1,0] Transferflow[0,1,1,0] Transferflow[0,2,1,0]
 Transferflow[1,0,1,0] Transferflow[1,1,1,0] Transferflow[1,2,1,0]
 Transferflow[2,0,1,0] Transferflow[2,1,1,0] Transferflow[2,2,1,0]
 Transferflow[0,0,1,1] Transferflow[0,1,1,1] Transferflow[0,2,1,1]
 Transferflow[1,0,1,1] Transferflow[1,1,1,1] Transferflow[1,2,1,1]
 Transferflow[2,0,1,1] Transferflow[2,1,1,1] Transferflow[2,2,1,1]
 Transferflow[0,0,1,2] Transferflow[0,1,1,2] Transferflow[0,2,1,2]
 Transferflow[1,0,1,2] Transferflow[1,1,1,2] Transferflow[1,2,1,2]
 Transferflow[2,0,1,2] Transferflow[2,1,1,2] Transferflow[2,2,1,2]
 Transferflow[0,0,1,3] Transferflow[0,1,1,3] Transferflow[0,2,1,3]
 Transferflow[1,0,1,3] Transferflow[1,1,1,3] Transferflow[1,2,1,3]
 Transferflow[2,0,1,3] Transferflow[2,1,1,3] Transferflow[2,2,1,3]
 Transferflow[0,0,2,0] Transferflow[0,1,2,0] Transferflow[0,2,2,0]
 Transferflow[1,0,2,0] Transferflow[1,1,2,0] Transferflow[1,2,2,0]
 Transferflow[2,0,2,0] Transferflow[2,1,2,0] Transferflow[2,2,2,0]
 Transferflow[0,0,2,1] Transferflow[0,1,2,1] Transferflow[0,2,2,1]
 Transferflow[1,0,2,1] Transferflow[1,1,2,1] Transferflow[1,2,2,1]
 Transferflow[2,0,2,1] Transferflow[2,1,2,1] Transferflow[2,2,2,1]
 Transferflow[0,0,2,2] Transferflow[0,1,2,2] Transferflow[0,2,2,2]
 Transferflow[1,0,2,2] Transferflow[1,1,2,2] Transferflow[1,2,2,2]
 Transferflow[2,0,2,2] Transferflow[2,1,2,2] Transferflow[2,2,2,2]
 Transferflow[0,0,2,3] Transferflow[0,1,2,3] Transferflow[0,2,2,3]
 Transferflow[1,0,2,3] Transferflow[1,1,2,3] Transferflow[1,2,2,3]
 Transferflow[2,0,2,3] Transferflow[2,1,2,3] Transferflow[2,2,2,3]
 Transferflow[0,0,3,0] Transferflow[0,1,3,0] Transferflow[0,2,3,0]
 Transferflow[1,0,3,0] Transferflow[1,1,3,0] Transferflow[1,2,3,0]
 Transferflow[2,0,3,0] Transferflow[2,1,3,0] Transferflow[2,2,3,0]
 Transferflow[0,0,3,1] Transferflow[0,1,3,1] Transferflow[0,2,3,1]
 Transferflow[1,0,3,1] Transferflow[1,1,3,1] Transferflow[1,2,3,1]
 Transferflow[2,0,3,1] Transferflow[2,1,3,1] Transferflow[2,2,3,1]
 Transferflow[0,0,3,2] Transferflow[0,1,3,2] Transferflow[0,2,3,2]
 Transferflow[1,0,3,2] Transferflow[1,1,3,2] Transferflow[1,2,3,2]
 Transferflow[2,0,3,2] Transferflow[2,1,3,2] Transferflow[2,2,3,2]
 Transferflow[0,0,3,3] Transferflow[0,1,3,3] Transferflow[0,2,3,3]
 Transferflow[1,0,3,3] Transferflow[1,1,3,3] Transferflow[1,2,3,3]
 Transferflow[2,0,3,3] Transferflow[2,1,3,3] Transferflow[2,2,3,3]
 Directflow[0,0,0] Directflow[0,1,0] Directflow[0,2,0] Directflow[1,0,0]
 Directflow[1,1,0] Directflow[1,2,0] Directflow[2,0,0] Directflow[2,1,0]
 Directflow[2,2,0] Directflow[0,0,1] Directflow[0,1,1] Directflow[0,2,1]
 Directflow[1,0,1] Directflow[1,1,1] Directflow[1,2,1] Directflow[2,0,1]
 Directflow[2,1,1] Directflow[2,2,1] Directflow[0,0,2] Directflow[0,1,2]
 Directflow[0,2,2] Directflow[1,0,2] Directflow[1,1,2] Directflow[1,2,2]
 Directflow[2,0,2] Directflow[2,1,2] Directflow[2,2,2] Directflow[0,0,3]
 Directflow[0,1,3] Directflow[0,2,3] Directflow[1,0,3] Directflow[1,1,3]
 Directflow[1,2,3] Directflow[2,0,3] Directflow[2,1,3] Directflow[2,2,3]
 Aircraft_number[0,1] Aircraft_number[1,1] Aircraft_number[2,1]
 Aircraft_number[3,1] Aircraft_number[0,2] Aircraft_number[1,2]
 Aircraft_number[2,2] Aircraft_number[3,2] Aircraft_number[0,3]
 Aircraft_number[1,3] Aircraft_number[2,3] Aircraft_number[3,3]
 Aircraft_number[0,4] Aircraft_number[1,4] Aircraft_number[2,4]
 Aircraft_number[3,4] Aircraft_number[0,5] Aircraft_number[1,5]
 Aircraft_number[2,5] Aircraft_number[3,5]
End
